words_train/words_572_UNSAT.qaiger
aag 33 16 0 1 17
32
16
8
22
20
12
26
30
6
4
18
10
28
2
14
24
66
34 11 5
36 34 13
38 15 9
40 38 7
42 40 36
44 29 23
46 44 27
48 31 25
50 48 46
52 50 21
54 53 42
56 33 17
58 57 54
60 43 32
62 61 57
64 63 55
66 65 59
i0 1 x[7]
i1 2 y[7]
i2 2 y[3]
i3 1 x[2]
i4 1 x[1]
i5 2 y[5]
i6 1 x[4]
i7 1 x[6]
i8 2 y[2]
i9 2 y[1]
i10 1 x[0]
i11 2 y[4]
i12 1 x[5]
i13 2 y[0]
i14 2 y[6]
i15 1 x[3]
o0 bv[0]
c
simplified
  <=
    1
    subtract
      or
        subtract
          1
          2 y
        1 x
      1
