words_train/words_572_UNSAT.qaiger.qdimacs
p cnf 33 52
a 9 10 11 12 13 14 15 16 0
e 1 2 3 4 5 6 7 8 17 18 19 20 21 22 23 24 25 26 27 28 29 30 31 32 33 0
5 2 17 0
-5 -17 0
-2 -17 0
-17 6 18 0
17 -18 0
-6 -18 0
7 4 19 0
-7 -19 0
-4 -19 0
-19 3 20 0
19 -20 0
-3 -20 0
-20 -18 21 0
20 -21 0
18 -21 0
14 11 22 0
-14 -22 0
-11 -22 0
-22 13 23 0
22 -23 0
-13 -23 0
15 12 24 0
-15 -24 0
-12 -24 0
-24 -23 25 0
24 -25 0
23 -25 0
-25 10 26 0
25 -26 0
-10 -26 0
26 -21 27 0
-26 -27 0
21 -27 0
16 8 28 0
-16 -28 0
-8 -28 0
28 -27 29 0
-28 -29 0
27 -29 0
21 -16 30 0
-21 -30 0
16 -30 0
30 28 31 0
-30 -31 0
-28 -31 0
31 27 32 0
-31 -32 0
-27 -32 0
32 29 33 0
-32 -33 0
-29 -33 0
33 0
